1238661
108,78,33,106,55,40,68,13,21,48,80,17,53,105,99,71,47,97,89,91,11,49,10,64,22,104,58,54,102,100,15,23,79,67,4,92,74,56,103,30,6,61,85,43,95,32,44,20,63,3,83,25,16,107,94,81,2,51,84,59,46,29,52,34,101,98,35,5,1,82,45,90,24,109,77,66,9,37,26,41,38,72,57,75,86,27,69,70,31,39,14,8,28,36,12,65,60,42,88,7,18,50,76,73,19,62,87,96,93